unsat
(define-fun f ((x (_ BitVec 64))) (_ BitVec 64) (let ((_let_1 (shesh x))) (im (bvand #b0000000000000000000000000000000000000000000000000000000000000001 _let_1) _let_1 (im (bvand #b0000000000000000000000000000000000000000000000000000000000000001 (bvnot x)) (bvnot #b0000000000000000000000000000000000000000000000000000000000000001) (bvnot #b0000000000000000000000000000000000000000000000000000000000000000)))))
27.32user 0.05system 0:27.37elapsed 99%CPU (0avgtext+0avgdata 94972maxresident)k
120inputs+8outputs (0major+19890minor)pagefaults 0swaps
